-257 -289 0
37 -287 -288 257 0
-287 -288 257 0
d 37 -287 -288 257 0
-289 0
257 0
-33 0
1 0
65 0
-225 0
-97 0
17 0
-129 0
-49 0
-145 0
-193 0
9 0
25 0
273 0
-81 0
-41 0
-5 0
-89 0
-37 0
-177 0
-137 0
-185 0
-57 0
-105 0
-153 0
-201 0
-241 0
0
